param c :
		0		1		2		3		4		5		6		7	:=
	0	.		3		6		1000	10		1000	1000	1000
	1	8		.		10		2		1		9		3		1000
	2	7		6		.		1		5		3		5		1000
	3	1000	8		8		.		3		9		10		1000
	4	4		7		7		4		.		2		5		10
	5	1000	4		2		9		1		.		2		8
	6	1000	6		2		7		10		2		.		3
	7	1000	1000	1000	1000	1		6		6		.
;
param puerta :=
	0	0
	1	6
	2	8
	3	8
	4	2
	5	7
	6	6
	7	3
;